##  Data file for Inference Serving problem

set R:= request1 request2;
set M:= mobilenet;
set N:= nano1 xavier_nx;
set SERVED:= (mobilenet, nano1) (mobilenet, xavier_nx);


param lamda:= request1 1 request2 1;
param tau:= request1 1 request2 1;
param min_accuracy:= request1 60.0 request2 60.0;
param accuracy:= mobilenet 67.32;
param input_size:= mobilenet 1;

param max_throughput:= mobilenet nano1 3 mobilenet xavier_nx 3;
param alpha:= mobilenet nano1 0.27 mobilenet xavier_nx 0.16;
param beta:= mobilenet nano1 0.06 mobilenet xavier_nx 0.06;